outputs/case_210.model.txt
penalty_charged = True
no_compound_interest = False
disclosed_dispute_handling = False
fees_included_in_revolving_principal = True
disclosed_revolving_interest_calculation = False
disclosed_fees_and_charges = False
current_consumption_included_in_principal = True
compound_interest_applied = True
no_current_consumption_in_principal = False
penalty_charge_method = False
interest_start_date = 0
disclosure_plain_and_prominent = False
credit_card_revolving_annual_interest_rate = 16
disclosed_annual_fee = False
disclosed_penalty_calculation = False
disclosed_revolving_interest_rate = 16
disclosed_benefits_and_conditions = False
interest_principal_accounts_compliant = False
penalty_charge_method_compliant = False
actual_disbursement_date = 1
contract_includes_adjustment_frequency = False
disclosed_cardholder_rights = False
no_fee_in_principal = False
central_authority_permission_granted = True
engage_credit_card_business = True
disclosed_usage_and_loss_handling = False
disclosed_other_regulatory_items = False
engage_money_market_business = False
permission_required = True
allowed_interest_principal = 0
violated_mandatory_or_prohibitory_provisions = False
penalty = False
law_violation = False
disclosure_required = False
credit_card_interest_rate_limit = 0